c ind 222 221 220 219 218 217 216 215 214 213 212 211 210 209 208 207 206 205 204 203 202 201 200 199 198 197 196 195 194 193 192 191  0
c ind 411 410 409 408 407 406 405 404 403 402 401 400 399 398 397 396 395 394 393 392 391 390 389 388 387 386 385 384 383 382 381 380  0
c ind 33 32 31 30 29 28 27 26 25 24 23 22 21 20 19 18 17 16 15 14 13 12 11 10 9 8 7 6 5 4 3 2  0
c ind 348 347 346 345 344 343 342 341 340 339 338 337 336 335 334 333 332 331 330 329 328 327 326 325 324 323 322 321 320 319 318 317  0
c ind 285 284 283 282 281 280 279 278 277 276 275 274 273 272 271 270 269 268 267 266 265 264 263 262 261 260 259 258 257 256 255 254  0
c ind 159 158 157 156 155 154 153 152 151 150 149 148 147 146 145 144 143 142 141 140 139 138 137 136 135 134 133 132 131 130 129 128  0
c ind 96 95 94 93 92 91 90 89 88 87 86 85 84 83 82 81 80 79 78 77 76 75 74 73 72 71 70 69 68 67 66 65  0
c ind 474 473 472 471 470 469 468 467 466 465 464 463 462 461 460 459 458 457 456 455 454 453 452 451 450 449 448 447 446 445 444 443  0
p cnf 505 592
1 0
-2 0
-3 0
-4 0
-5 0
-6 0
-7 0
-8 0
-9 0
-10 0
-11 0
-12 0
-13 0
-14 0
-15 0
-16 0
-17 0
-18 0
-19 0
-20 0
-21 0
-22 0
-23 0
-24 0
-25 0
-26 0
-27 0
-28 0
-29 0
-30 0
-31 0
-32 0
-33 0
34 0
35 0
36 0
37 0
38 0
39 0
40 0
41 0
42 0
43 0
44 0
45 0
46 0
47 0
48 0
49 0
50 0
51 0
52 0
53 0
54 0
55 0
56 0
57 0
58 0
59 0
60 0
61 0
62 0
63 0
64 0
-65 0
-66 0
-67 0
-68 0
-69 0
-70 0
-71 0
-72 0
-73 0
-74 0
-75 0
-76 0
-77 0
-78 0
-79 0
-80 0
-81 0
-82 0
-83 0
-84 0
-85 0
-86 0
-87 0
-88 0
-89 0
-90 0
-91 0
-92 0
-93 0
-94 0
-95 0
-96 0
97 0
98 0
99 0
100 0
101 0
102 0
103 0
104 0
105 0
106 0
107 0
108 0
109 0
110 0
111 0
112 0
113 0
114 0
115 0
116 0
117 0
118 0
119 0
120 0
121 0
122 0
123 0
124 0
125 0
126 0
127 0
-190 0
-191 0
-192 0
-193 0
-194 0
-195 0
-196 0
-197 0
-198 0
-199 0
-200 0
-201 0
-202 0
-203 0
-204 0
-205 0
-206 0
-207 0
-208 0
-209 0
-210 0
-211 0
-212 0
-213 0
-214 0
-215 0
-216 0
-217 0
-218 0
-219 0
-220 0
-221 0
-222 0
223 0
224 0
225 0
226 0
227 0
228 0
229 0
230 0
231 0
232 0
233 0
234 0
235 0
236 0
237 0
238 0
239 0
240 0
241 0
242 0
243 0
244 0
245 0
246 0
247 0
248 0
249 0
250 0
251 0
252 0
253 0
-254 0
-255 0
-256 0
-257 0
-258 0
-259 0
-260 0
-261 0
-262 0
-263 0
-264 0
-265 0
-266 0
-267 0
-268 0
-269 0
-270 0
-271 0
-272 0
-273 0
-274 0
-275 0
-276 0
-277 0
-278 0
-279 0
-280 0
-281 0
-282 0
-283 0
-284 0
-285 0
286 0
287 0
288 0
289 0
290 0
291 0
292 0
293 0
294 0
295 0
296 0
297 0
298 0
299 0
300 0
301 0
302 0
303 0
304 0
305 0
306 0
307 0
308 0
309 0
310 0
311 0
312 0
313 0
314 0
315 0
316 0
-379 0
-380 0
-381 0
-382 0
-383 0
-384 0
-385 0
-386 0
-387 0
-388 0
-389 0
-390 0
-391 0
-392 0
-393 0
-394 0
-395 0
-396 0
-397 0
-398 0
-399 0
-400 0
-401 0
-402 0
-403 0
-404 0
-405 0
-406 0
-407 0
-408 0
-409 0
-410 0
-411 0
412 0
413 0
414 0
415 0
416 0
417 0
418 0
419 0
420 0
421 0
422 0
423 0
424 0
425 0
426 0
427 0
428 0
429 0
430 0
431 0
432 0
433 0
434 0
435 0
436 0
437 0
438 0
439 0
440 0
441 0
442 0
-505 0
-128 -160 0
128 129 160 0
-129 -160 0
-130 -161 0
130 -160 161 0
-131 -162 0
131 -161 162 0
-132 -163 0
132 -162 163 0
-133 -164 0
133 -163 164 0
-134 -165 0
134 -164 165 0
-135 -166 0
135 -165 166 0
-136 -167 0
136 -166 167 0
-137 -168 0
137 -167 168 0
-138 -169 0
138 -168 169 0
-139 -170 0
139 -169 170 0
-140 -171 0
140 -170 171 0
-141 -172 0
141 -171 172 0
-142 -173 0
142 -172 173 0
-143 -174 0
143 -173 174 0
-144 -175 0
144 -174 175 0
-145 -176 0
145 -175 176 0
-146 -177 0
146 -176 177 0
-147 -178 0
147 -177 178 0
-148 -179 0
148 -178 179 0
-149 -180 0
149 -179 180 0
-150 -181 0
150 -180 181 0
-151 -182 0
151 -181 182 0
-152 -183 0
152 -182 183 0
-153 -184 0
153 -183 184 0
-154 -185 0
154 -184 185 0
-155 -186 0
155 -185 186 0
-156 -187 0
156 -186 187 0
-157 -188 0
157 -187 188 0
-158 -189 0
158 -188 189 0
159 -189 0
160 -161 0
161 -162 0
162 -163 0
163 -164 0
164 -165 0
165 -166 0
166 -167 0
167 -168 0
168 -169 0
169 -170 0
170 -171 0
171 -172 0
172 -173 0
173 -174 0
174 -175 0
175 -176 0
176 -177 0
177 -178 0
178 -179 0
179 -180 0
180 -181 0
181 -182 0
182 -183 0
183 -184 0
184 -185 0
185 -186 0
186 -187 0
187 -188 0
188 -189 0
-317 -349 0
317 318 349 0
-318 -349 0
-319 -350 0
319 -349 350 0
-320 -351 0
320 -350 351 0
-321 -352 0
321 -351 352 0
-322 -353 0
322 -352 353 0
-323 -354 0
323 -353 354 0
-324 -355 0
324 -354 355 0
-325 -356 0
325 -355 356 0
-326 -357 0
326 -356 357 0
-327 -358 0
327 -357 358 0
-328 -359 0
328 -358 359 0
-329 -360 0
329 -359 360 0
-330 -361 0
330 -360 361 0
-331 -362 0
331 -361 362 0
-332 -363 0
332 -362 363 0
-333 -364 0
333 -363 364 0
-334 -365 0
334 -364 365 0
-335 -366 0
335 -365 366 0
-336 -367 0
336 -366 367 0
-337 -368 0
337 -367 368 0
-338 -369 0
338 -368 369 0
-339 -370 0
339 -369 370 0
-340 -371 0
340 -370 371 0
-341 -372 0
341 -371 372 0
-342 -373 0
342 -372 373 0
-343 -374 0
343 -373 374 0
-344 -375 0
344 -374 375 0
-345 -376 0
345 -375 376 0
-346 -377 0
346 -376 377 0
-347 -378 0
347 -377 378 0
348 -378 0
349 -350 0
350 -351 0
351 -352 0
352 -353 0
353 -354 0
354 -355 0
355 -356 0
356 -357 0
357 -358 0
358 -359 0
359 -360 0
360 -361 0
361 -362 0
362 -363 0
363 -364 0
364 -365 0
365 -366 0
366 -367 0
367 -368 0
368 -369 0
369 -370 0
370 -371 0
371 -372 0
372 -373 0
373 -374 0
374 -375 0
375 -376 0
376 -377 0
377 -378 0
-443 -475 0
443 444 475 0
-444 -475 0
-445 -476 0
445 -475 476 0
-446 -477 0
446 -476 477 0
-447 -478 0
447 -477 478 0
-448 -479 0
448 -478 479 0
-449 -480 0
449 -479 480 0
-450 -481 0
450 -480 481 0
-451 -482 0
451 -481 482 0
-452 -483 0
452 -482 483 0
-453 -484 0
453 -483 484 0
-454 -485 0
454 -484 485 0
-455 -486 0
455 -485 486 0
-456 -487 0
456 -486 487 0
-457 -488 0
457 -487 488 0
-458 -489 0
458 -488 489 0
-459 -490 0
459 -489 490 0
-460 -491 0
460 -490 491 0
-461 -492 0
461 -491 492 0
-462 -493 0
462 -492 493 0
-463 -494 0
463 -493 494 0
-464 -495 0
464 -494 495 0
-465 -496 0
465 -495 496 0
-466 -497 0
466 -496 497 0
-467 -498 0
467 -497 498 0
-468 -499 0
468 -498 499 0
-469 -500 0
469 -499 500 0
-470 -501 0
470 -500 501 0
-471 -502 0
471 -501 502 0
-472 -503 0
472 -502 503 0
-473 -504 0
473 -503 504 0
474 -504 0
475 -476 0
476 -477 0
477 -478 0
478 -479 0
479 -480 0
480 -481 0
481 -482 0
482 -483 0
483 -484 0
484 -485 0
485 -486 0
486 -487 0
487 -488 0
488 -489 0
489 -490 0
490 -491 0
491 -492 0
492 -493 0
493 -494 0
494 -495 0
495 -496 0
496 -497 0
497 -498 0
498 -499 0
499 -500 0
500 -501 0
501 -502 0
502 -503 0
503 -504 0
